(set-info :category "industrial")
(set-info :status sat)
(declare-fun x00 () (_ BitVec 8))
(declare-fun x04 () (_ BitVec 8))
(declare-fun x05 () (_ BitVec 8))
(declare-fun x07 () (_ BitVec 8))
(declare-fun x08 () (_ BitVec 8))
(declare-fun x11 () (_ BitVec 8))
(declare-fun x12 () (_ BitVec 8))
(declare-fun x13 () (_ BitVec 8))
(declare-fun x14 () (_ BitVec 8))
(declare-fun x16 () (_ BitVec 8))
(declare-fun x18 () (_ BitVec 8))
(declare-fun x20 () (_ BitVec 8))
(declare-fun x21 () (_ BitVec 8))
(declare-fun x23 () (_ BitVec 8))
(declare-fun x24 () (_ BitVec 8))
(declare-fun x25 () (_ BitVec 8))
(declare-fun x30 () (_ BitVec 8))
(declare-fun x31 () (_ BitVec 8))
(declare-fun x32 () (_ BitVec 8))
(declare-fun x33 () (_ BitVec 8))
(declare-fun x35 () (_ BitVec 8))
(declare-fun x36 () (_ BitVec 8))
(declare-fun x37 () (_ BitVec 8))
(declare-fun x38 () (_ BitVec 8))
(declare-fun x40 () (_ BitVec 8))
(declare-fun x41 () (_ BitVec 8))
(declare-fun x44 () (_ BitVec 8))
(declare-fun x50 () (_ BitVec 8))
(declare-fun x51 () (_ BitVec 8))
(declare-fun x52 () (_ BitVec 8))
(declare-fun x54 () (_ BitVec 8))
(declare-fun x57 () (_ BitVec 8))
(declare-fun x58 () (_ BitVec 8))
(declare-fun x60 () (_ BitVec 8))
(declare-fun x62 () (_ BitVec 8))
(declare-fun x65 () (_ BitVec 8))
(declare-fun x66 () (_ BitVec 8))
(declare-fun x67 () (_ BitVec 8))
(declare-fun x68 () (_ BitVec 8))
(declare-fun x72 () (_ BitVec 8))
(declare-fun x73 () (_ BitVec 8))
(declare-fun x77 () (_ BitVec 8))
(declare-fun x80 () (_ BitVec 8))
(declare-fun x83 () (_ BitVec 8))
(declare-fun x84 () (_ BitVec 8))
(declare-fun x86 () (_ BitVec 8))
(declare-fun x87 () (_ BitVec 8))
(assert (bvult x00 (_ bv9 8)))
(assert (bvult x04 (_ bv9 8)))
(assert (bvult x05 (_ bv9 8)))
(assert (bvult x07 (_ bv9 8)))
(assert (bvult x08 (_ bv9 8)))
(assert (bvult x11 (_ bv9 8)))
(assert (bvult x12 (_ bv9 8)))
(assert (bvult x13 (_ bv9 8)))
(assert (bvult x14 (_ bv9 8)))
(assert (bvult x16 (_ bv9 8)))
(assert (bvult x18 (_ bv9 8)))
(assert (bvult x20 (_ bv9 8)))
(assert (bvult x21 (_ bv9 8)))
(assert (bvult x23 (_ bv9 8)))
(assert (bvult x24 (_ bv9 8)))
(assert (bvult x25 (_ bv9 8)))
(assert (bvult x30 (_ bv9 8)))
(assert (bvult x31 (_ bv9 8)))
(assert (bvult x32 (_ bv9 8)))
(assert (bvult x33 (_ bv9 8)))
(assert (bvult x35 (_ bv9 8)))
(assert (bvult x36 (_ bv9 8)))
(assert (bvult x37 (_ bv9 8)))
(assert (bvult x38 (_ bv9 8)))
(assert (bvult x40 (_ bv9 8)))
(assert (bvult x41 (_ bv9 8)))
(assert (bvult x44 (_ bv9 8)))
(assert (bvult x50 (_ bv9 8)))
(assert (bvult x51 (_ bv9 8)))
(assert (bvult x52 (_ bv9 8)))
(assert (bvult x54 (_ bv9 8)))
(assert (bvult x57 (_ bv9 8)))
(assert (bvult x58 (_ bv9 8)))
(assert (bvult x60 (_ bv9 8)))
(assert (bvult x62 (_ bv9 8)))
(assert (bvult x65 (_ bv9 8)))
(assert (bvult x66 (_ bv9 8)))
(assert (bvult x67 (_ bv9 8)))
(assert (bvult x68 (_ bv9 8)))
(assert (bvult x72 (_ bv9 8)))
(assert (bvult x73 (_ bv9 8)))
(assert (bvult x77 (_ bv9 8)))
(assert (bvult x80 (_ bv9 8)))
(assert (bvult x83 (_ bv9 8)))
(assert (bvult x84 (_ bv9 8)))
(assert (bvult x86 (_ bv9 8)))
(assert (bvult x87 (_ bv9 8)))
(assert (not (= x00 (_ bv3 8))))
(assert (not (= x00 (_ bv9 8))))
(assert (not (= x00 (_ bv7 8))))
(assert (not (= x00 x04)))
(assert (not (= x00 x05)))
(assert (not (= x00 (_ bv4 8))))
(assert (not (= x00 x07)))
(assert (not (= x00 x08)))
(assert (not (= (_ bv3 8) (_ bv9 8))))
(assert (not (= (_ bv3 8) (_ bv7 8))))
(assert (not (= (_ bv3 8) x04)))
(assert (not (= (_ bv3 8) x05)))
(assert (not (= (_ bv3 8) (_ bv4 8))))
(assert (not (= (_ bv3 8) x07)))
(assert (not (= (_ bv3 8) x08)))
(assert (not (= (_ bv9 8) (_ bv7 8))))
(assert (not (= (_ bv9 8) x04)))
(assert (not (= (_ bv9 8) x05)))
(assert (not (= (_ bv9 8) (_ bv4 8))))
(assert (not (= (_ bv9 8) x07)))
(assert (not (= (_ bv9 8) x08)))
(assert (not (= (_ bv7 8) x04)))
(assert (not (= (_ bv7 8) x05)))
(assert (not (= (_ bv7 8) (_ bv4 8))))
(assert (not (= (_ bv7 8) x07)))
(assert (not (= (_ bv7 8) x08)))
(assert (not (= x04 x05)))
(assert (not (= x04 (_ bv4 8))))
(assert (not (= x04 x07)))
(assert (not (= x04 x08)))
(assert (not (= x05 (_ bv4 8))))
(assert (not (= x05 x07)))
(assert (not (= x05 x08)))
(assert (not (= (_ bv4 8) x07)))
(assert (not (= (_ bv4 8) x08)))
(assert (not (= x07 x08)))
(assert (not (= (_ bv8 8) x11)))
(assert (not (= (_ bv8 8) x12)))
(assert (not (= (_ bv8 8) x13)))
(assert (not (= (_ bv8 8) x14)))
(assert (not (= (_ bv8 8) (_ bv2 8))))
(assert (not (= (_ bv8 8) x16)))
(assert (not (= (_ bv8 8) (_ bv6 8))))
(assert (not (= (_ bv8 8) x18)))
(assert (not (= x11 x12)))
(assert (not (= x11 x13)))
(assert (not (= x11 x14)))
(assert (not (= x11 (_ bv2 8))))
(assert (not (= x11 x16)))
(assert (not (= x11 (_ bv6 8))))
(assert (not (= x11 x18)))
(assert (not (= x12 x13)))
(assert (not (= x12 x14)))
(assert (not (= x12 (_ bv2 8))))
(assert (not (= x12 x16)))
(assert (not (= x12 (_ bv6 8))))
(assert (not (= x12 x18)))
(assert (not (= x13 x14)))
(assert (not (= x13 (_ bv2 8))))
(assert (not (= x13 x16)))
(assert (not (= x13 (_ bv6 8))))
(assert (not (= x13 x18)))
(assert (not (= x14 (_ bv2 8))))
(assert (not (= x14 x16)))
(assert (not (= x14 (_ bv6 8))))
(assert (not (= x14 x18)))
(assert (not (= (_ bv2 8) x16)))
(assert (not (= (_ bv2 8) (_ bv6 8))))
(assert (not (= (_ bv2 8) x18)))
(assert (not (= x16 (_ bv6 8))))
(assert (not (= x16 x18)))
(assert (not (= (_ bv6 8) x18)))
(assert (not (= x20 x21)))
(assert (not (= x20 (_ bv6 8))))
(assert (not (= x20 x23)))
(assert (not (= x20 x24)))
(assert (not (= x20 x25)))
(assert (not (= x20 (_ bv1 8))))
(assert (not (= x20 (_ bv3 8))))
(assert (not (= x20 (_ bv5 8))))
(assert (not (= x21 (_ bv6 8))))
(assert (not (= x21 x23)))
(assert (not (= x21 x24)))
(assert (not (= x21 x25)))
(assert (not (= x21 (_ bv1 8))))
(assert (not (= x21 (_ bv3 8))))
(assert (not (= x21 (_ bv5 8))))
(assert (not (= (_ bv6 8) x23)))
(assert (not (= (_ bv6 8) x24)))
(assert (not (= (_ bv6 8) x25)))
(assert (not (= (_ bv6 8) (_ bv1 8))))
(assert (not (= (_ bv6 8) (_ bv3 8))))
(assert (not (= (_ bv6 8) (_ bv5 8))))
(assert (not (= x23 x24)))
(assert (not (= x23 x25)))
(assert (not (= x23 (_ bv1 8))))
(assert (not (= x23 (_ bv3 8))))
(assert (not (= x23 (_ bv5 8))))
(assert (not (= x24 x25)))
(assert (not (= x24 (_ bv1 8))))
(assert (not (= x24 (_ bv3 8))))
(assert (not (= x24 (_ bv5 8))))
(assert (not (= x25 (_ bv1 8))))
(assert (not (= x25 (_ bv3 8))))
(assert (not (= x25 (_ bv5 8))))
(assert (not (= (_ bv1 8) (_ bv3 8))))
(assert (not (= (_ bv1 8) (_ bv5 8))))
(assert (not (= (_ bv3 8) (_ bv5 8))))
(assert (not (= x30 x31)))
(assert (not (= x30 x32)))
(assert (not (= x30 x33)))
(assert (not (= x30 (_ bv7 8))))
(assert (not (= x30 x35)))
(assert (not (= x30 x36)))
(assert (not (= x30 x37)))
(assert (not (= x30 x38)))
(assert (not (= x31 x32)))
(assert (not (= x31 x33)))
(assert (not (= x31 (_ bv7 8))))
(assert (not (= x31 x35)))
(assert (not (= x31 x36)))
(assert (not (= x31 x37)))
(assert (not (= x31 x38)))
(assert (not (= x32 x33)))
(assert (not (= x32 (_ bv7 8))))
(assert (not (= x32 x35)))
(assert (not (= x32 x36)))
(assert (not (= x32 x37)))
(assert (not (= x32 x38)))
(assert (not (= x33 (_ bv7 8))))
(assert (not (= x33 x35)))
(assert (not (= x33 x36)))
(assert (not (= x33 x37)))
(assert (not (= x33 x38)))
(assert (not (= (_ bv7 8) x35)))
(assert (not (= (_ bv7 8) x36)))
(assert (not (= (_ bv7 8) x37)))
(assert (not (= (_ bv7 8) x38)))
(assert (not (= x35 x36)))
(assert (not (= x35 x37)))
(assert (not (= x35 x38)))
(assert (not (= x36 x37)))
(assert (not (= x36 x38)))
(assert (not (= x37 x38)))
(assert (not (= x40 x41)))
(assert (not (= x40 (_ bv1 8))))
(assert (not (= x40 (_ bv2 8))))
(assert (not (= x40 x44)))
(assert (not (= x40 (_ bv3 8))))
(assert (not (= x40 (_ bv7 8))))
(assert (not (= x40 (_ bv8 8))))
(assert (not (= x40 (_ bv4 8))))
(assert (not (= x41 (_ bv1 8))))
(assert (not (= x41 (_ bv2 8))))
(assert (not (= x41 x44)))
(assert (not (= x41 (_ bv3 8))))
(assert (not (= x41 (_ bv7 8))))
(assert (not (= x41 (_ bv8 8))))
(assert (not (= x41 (_ bv4 8))))
(assert (not (= (_ bv1 8) (_ bv2 8))))
(assert (not (= (_ bv1 8) x44)))
(assert (not (= (_ bv1 8) (_ bv3 8))))
(assert (not (= (_ bv1 8) (_ bv7 8))))
(assert (not (= (_ bv1 8) (_ bv8 8))))
(assert (not (= (_ bv1 8) (_ bv4 8))))
(assert (not (= (_ bv2 8) x44)))
(assert (not (= (_ bv2 8) (_ bv3 8))))
(assert (not (= (_ bv2 8) (_ bv7 8))))
(assert (not (= (_ bv2 8) (_ bv8 8))))
(assert (not (= (_ bv2 8) (_ bv4 8))))
(assert (not (= x44 (_ bv3 8))))
(assert (not (= x44 (_ bv7 8))))
(assert (not (= x44 (_ bv8 8))))
(assert (not (= x44 (_ bv4 8))))
(assert (not (= (_ bv3 8) (_ bv7 8))))
(assert (not (= (_ bv3 8) (_ bv8 8))))
(assert (not (= (_ bv3 8) (_ bv4 8))))
(assert (not (= (_ bv7 8) (_ bv8 8))))
(assert (not (= (_ bv7 8) (_ bv4 8))))
(assert (not (= (_ bv8 8) (_ bv4 8))))
(assert (not (= x50 x51)))
(assert (not (= x50 x52)))
(assert (not (= x50 (_ bv8 8))))
(assert (not (= x50 x54)))
(assert (not (= x50 (_ bv9 8))))
(assert (not (= x50 (_ bv2 8))))
(assert (not (= x50 x57)))
(assert (not (= x50 x58)))
(assert (not (= x51 x52)))
(assert (not (= x51 (_ bv8 8))))
(assert (not (= x51 x54)))
(assert (not (= x51 (_ bv9 8))))
(assert (not (= x51 (_ bv2 8))))
(assert (not (= x51 x57)))
(assert (not (= x51 x58)))
(assert (not (= x52 (_ bv8 8))))
(assert (not (= x52 x54)))
(assert (not (= x52 (_ bv9 8))))
(assert (not (= x52 (_ bv2 8))))
(assert (not (= x52 x57)))
(assert (not (= x52 x58)))
(assert (not (= (_ bv8 8) x54)))
(assert (not (= (_ bv8 8) (_ bv9 8))))
(assert (not (= (_ bv8 8) (_ bv2 8))))
(assert (not (= (_ bv8 8) x57)))
(assert (not (= (_ bv8 8) x58)))
(assert (not (= x54 (_ bv9 8))))
(assert (not (= x54 (_ bv2 8))))
(assert (not (= x54 x57)))
(assert (not (= x54 x58)))
(assert (not (= (_ bv9 8) (_ bv2 8))))
(assert (not (= (_ bv9 8) x57)))
(assert (not (= (_ bv9 8) x58)))
(assert (not (= (_ bv2 8) x57)))
(assert (not (= (_ bv2 8) x58)))
(assert (not (= x57 x58)))
(assert (not (= x60 (_ bv1 8))))
(assert (not (= x60 x62)))
(assert (not (= x60 (_ bv5 8))))
(assert (not (= x60 (_ bv8 8))))
(assert (not (= x60 x65)))
(assert (not (= x60 x66)))
(assert (not (= x60 x67)))
(assert (not (= x60 x68)))
(assert (not (= (_ bv1 8) x62)))
(assert (not (= (_ bv1 8) (_ bv5 8))))
(assert (not (= (_ bv1 8) (_ bv8 8))))
(assert (not (= (_ bv1 8) x65)))
(assert (not (= (_ bv1 8) x66)))
(assert (not (= (_ bv1 8) x67)))
(assert (not (= (_ bv1 8) x68)))
(assert (not (= x62 (_ bv5 8))))
(assert (not (= x62 (_ bv8 8))))
(assert (not (= x62 x65)))
(assert (not (= x62 x66)))
(assert (not (= x62 x67)))
(assert (not (= x62 x68)))
(assert (not (= (_ bv5 8) (_ bv8 8))))
(assert (not (= (_ bv5 8) x65)))
(assert (not (= (_ bv5 8) x66)))
(assert (not (= (_ bv5 8) x67)))
(assert (not (= (_ bv5 8) x68)))
(assert (not (= (_ bv8 8) x65)))
(assert (not (= (_ bv8 8) x66)))
(assert (not (= (_ bv8 8) x67)))
(assert (not (= (_ bv8 8) x68)))
(assert (not (= x65 x66)))
(assert (not (= x65 x67)))
(assert (not (= x65 x68)))
(assert (not (= x66 x67)))
(assert (not (= x66 x68)))
(assert (not (= x67 x68)))
(assert (not (= (_ bv2 8) (_ bv4 8))))
(assert (not (= (_ bv2 8) x72)))
(assert (not (= (_ bv2 8) x73)))
(assert (not (= (_ bv2 8) (_ bv3 8))))
(assert (not (= (_ bv2 8) (_ bv7 8))))
(assert (not (= (_ bv2 8) (_ bv6 8))))
(assert (not (= (_ bv2 8) x77)))
(assert (not (= (_ bv2 8) (_ bv9 8))))
(assert (not (= (_ bv4 8) x72)))
(assert (not (= (_ bv4 8) x73)))
(assert (not (= (_ bv4 8) (_ bv3 8))))
(assert (not (= (_ bv4 8) (_ bv7 8))))
(assert (not (= (_ bv4 8) (_ bv6 8))))
(assert (not (= (_ bv4 8) x77)))
(assert (not (= (_ bv4 8) (_ bv9 8))))
(assert (not (= x72 x73)))
(assert (not (= x72 (_ bv3 8))))
(assert (not (= x72 (_ bv7 8))))
(assert (not (= x72 (_ bv6 8))))
(assert (not (= x72 x77)))
(assert (not (= x72 (_ bv9 8))))
(assert (not (= x73 (_ bv3 8))))
(assert (not (= x73 (_ bv7 8))))
(assert (not (= x73 (_ bv6 8))))
(assert (not (= x73 x77)))
(assert (not (= x73 (_ bv9 8))))
(assert (not (= (_ bv3 8) (_ bv7 8))))
(assert (not (= (_ bv3 8) (_ bv6 8))))
(assert (not (= (_ bv3 8) x77)))
(assert (not (= (_ bv3 8) (_ bv9 8))))
(assert (not (= (_ bv7 8) (_ bv6 8))))
(assert (not (= (_ bv7 8) x77)))
(assert (not (= (_ bv7 8) (_ bv9 8))))
(assert (not (= (_ bv6 8) x77)))
(assert (not (= (_ bv6 8) (_ bv9 8))))
(assert (not (= x77 (_ bv9 8))))
(assert (not (= x80 (_ bv6 8))))
(assert (not (= x80 (_ bv5 8))))
(assert (not (= x80 x83)))
(assert (not (= x80 x84)))
(assert (not (= x80 (_ bv4 8))))
(assert (not (= x80 x86)))
(assert (not (= x80 x87)))
(assert (not (= x80 (_ bv1 8))))
(assert (not (= (_ bv6 8) (_ bv5 8))))
(assert (not (= (_ bv6 8) x83)))
(assert (not (= (_ bv6 8) x84)))
(assert (not (= (_ bv6 8) (_ bv4 8))))
(assert (not (= (_ bv6 8) x86)))
(assert (not (= (_ bv6 8) x87)))
(assert (not (= (_ bv6 8) (_ bv1 8))))
(assert (not (= (_ bv5 8) x83)))
(assert (not (= (_ bv5 8) x84)))
(assert (not (= (_ bv5 8) (_ bv4 8))))
(assert (not (= (_ bv5 8) x86)))
(assert (not (= (_ bv5 8) x87)))
(assert (not (= (_ bv5 8) (_ bv1 8))))
(assert (not (= x83 x84)))
(assert (not (= x83 (_ bv4 8))))
(assert (not (= x83 x86)))
(assert (not (= x83 x87)))
(assert (not (= x83 (_ bv1 8))))
(assert (not (= x84 (_ bv4 8))))
(assert (not (= x84 x86)))
(assert (not (= x84 x87)))
(assert (not (= x84 (_ bv1 8))))
(assert (not (= (_ bv4 8) x86)))
(assert (not (= (_ bv4 8) x87)))
(assert (not (= (_ bv4 8) (_ bv1 8))))
(assert (not (= x86 x87)))
(assert (not (= x86 (_ bv1 8))))
(assert (not (= x87 (_ bv1 8))))
(assert (not (= x00 (_ bv8 8))))
(assert (not (= x00 x20)))
(assert (not (= x00 x30)))
(assert (not (= x00 x40)))
(assert (not (= x00 x50)))
(assert (not (= x00 x60)))
(assert (not (= x00 (_ bv2 8))))
(assert (not (= x00 x80)))
(assert (not (= (_ bv8 8) x20)))
(assert (not (= (_ bv8 8) x30)))
(assert (not (= (_ bv8 8) x40)))
(assert (not (= (_ bv8 8) x50)))
(assert (not (= (_ bv8 8) x60)))
(assert (not (= (_ bv8 8) (_ bv2 8))))
(assert (not (= (_ bv8 8) x80)))
(assert (not (= x20 x30)))
(assert (not (= x20 x40)))
(assert (not (= x20 x50)))
(assert (not (= x20 x60)))
(assert (not (= x20 (_ bv2 8))))
(assert (not (= x20 x80)))
(assert (not (= x30 x40)))
(assert (not (= x30 x50)))
(assert (not (= x30 x60)))
(assert (not (= x30 (_ bv2 8))))
(assert (not (= x30 x80)))
(assert (not (= x40 x50)))
(assert (not (= x40 x60)))
(assert (not (= x40 (_ bv2 8))))
(assert (not (= x40 x80)))
(assert (not (= x50 x60)))
(assert (not (= x50 (_ bv2 8))))
(assert (not (= x50 x80)))
(assert (not (= x60 (_ bv2 8))))
(assert (not (= x60 x80)))
(assert (not (= (_ bv2 8) x80)))
(assert (not (= (_ bv3 8) x11)))
(assert (not (= (_ bv3 8) x21)))
(assert (not (= (_ bv3 8) x31)))
(assert (not (= (_ bv3 8) x41)))
(assert (not (= (_ bv3 8) x51)))
(assert (not (= (_ bv3 8) (_ bv1 8))))
(assert (not (= (_ bv3 8) (_ bv4 8))))
(assert (not (= (_ bv3 8) (_ bv6 8))))
(assert (not (= x11 x21)))
(assert (not (= x11 x31)))
(assert (not (= x11 x41)))
(assert (not (= x11 x51)))
(assert (not (= x11 (_ bv1 8))))
(assert (not (= x11 (_ bv4 8))))
(assert (not (= x11 (_ bv6 8))))
(assert (not (= x21 x31)))
(assert (not (= x21 x41)))
(assert (not (= x21 x51)))
(assert (not (= x21 (_ bv1 8))))
(assert (not (= x21 (_ bv4 8))))
(assert (not (= x21 (_ bv6 8))))
(assert (not (= x31 x41)))
(assert (not (= x31 x51)))
(assert (not (= x31 (_ bv1 8))))
(assert (not (= x31 (_ bv4 8))))
(assert (not (= x31 (_ bv6 8))))
(assert (not (= x41 x51)))
(assert (not (= x41 (_ bv1 8))))
(assert (not (= x41 (_ bv4 8))))
(assert (not (= x41 (_ bv6 8))))
(assert (not (= x51 (_ bv1 8))))
(assert (not (= x51 (_ bv4 8))))
(assert (not (= x51 (_ bv6 8))))
(assert (not (= (_ bv1 8) (_ bv4 8))))
(assert (not (= (_ bv1 8) (_ bv6 8))))
(assert (not (= (_ bv4 8) (_ bv6 8))))
(assert (not (= (_ bv9 8) x12)))
(assert (not (= (_ bv9 8) (_ bv6 8))))
(assert (not (= (_ bv9 8) x32)))
(assert (not (= (_ bv9 8) (_ bv1 8))))
(assert (not (= (_ bv9 8) x52)))
(assert (not (= (_ bv9 8) x62)))
(assert (not (= (_ bv9 8) x72)))
(assert (not (= (_ bv9 8) (_ bv5 8))))
(assert (not (= x12 (_ bv6 8))))
(assert (not (= x12 x32)))
(assert (not (= x12 (_ bv1 8))))
(assert (not (= x12 x52)))
(assert (not (= x12 x62)))
(assert (not (= x12 x72)))
(assert (not (= x12 (_ bv5 8))))
(assert (not (= (_ bv6 8) x32)))
(assert (not (= (_ bv6 8) (_ bv1 8))))
(assert (not (= (_ bv6 8) x52)))
(assert (not (= (_ bv6 8) x62)))
(assert (not (= (_ bv6 8) x72)))
(assert (not (= (_ bv6 8) (_ bv5 8))))
(assert (not (= x32 (_ bv1 8))))
(assert (not (= x32 x52)))
(assert (not (= x32 x62)))
(assert (not (= x32 x72)))
(assert (not (= x32 (_ bv5 8))))
(assert (not (= (_ bv1 8) x52)))
(assert (not (= (_ bv1 8) x62)))
(assert (not (= (_ bv1 8) x72)))
(assert (not (= (_ bv1 8) (_ bv5 8))))
(assert (not (= x52 x62)))
(assert (not (= x52 x72)))
(assert (not (= x52 (_ bv5 8))))
(assert (not (= x62 x72)))
(assert (not (= x62 (_ bv5 8))))
(assert (not (= x72 (_ bv5 8))))
(assert (not (= (_ bv7 8) x13)))
(assert (not (= (_ bv7 8) x23)))
(assert (not (= (_ bv7 8) x33)))
(assert (not (= (_ bv7 8) (_ bv2 8))))
(assert (not (= (_ bv7 8) (_ bv8 8))))
(assert (not (= (_ bv7 8) (_ bv5 8))))
(assert (not (= (_ bv7 8) x73)))
(assert (not (= (_ bv7 8) x83)))
(assert (not (= x13 x23)))
(assert (not (= x13 x33)))
(assert (not (= x13 (_ bv2 8))))
(assert (not (= x13 (_ bv8 8))))
(assert (not (= x13 (_ bv5 8))))
(assert (not (= x13 x73)))
(assert (not (= x13 x83)))
(assert (not (= x23 x33)))
(assert (not (= x23 (_ bv2 8))))
(assert (not (= x23 (_ bv8 8))))
(assert (not (= x23 (_ bv5 8))))
(assert (not (= x23 x73)))
(assert (not (= x23 x83)))
(assert (not (= x33 (_ bv2 8))))
(assert (not (= x33 (_ bv8 8))))
(assert (not (= x33 (_ bv5 8))))
(assert (not (= x33 x73)))
(assert (not (= x33 x83)))
(assert (not (= (_ bv2 8) (_ bv8 8))))
(assert (not (= (_ bv2 8) (_ bv5 8))))
(assert (not (= (_ bv2 8) x73)))
(assert (not (= (_ bv2 8) x83)))
(assert (not (= (_ bv8 8) (_ bv5 8))))
(assert (not (= (_ bv8 8) x73)))
(assert (not (= (_ bv8 8) x83)))
(assert (not (= (_ bv5 8) x73)))
(assert (not (= (_ bv5 8) x83)))
(assert (not (= x73 x83)))
(assert (not (= x04 x14)))
(assert (not (= x04 x24)))
(assert (not (= x04 (_ bv7 8))))
(assert (not (= x04 x44)))
(assert (not (= x04 x54)))
(assert (not (= x04 (_ bv8 8))))
(assert (not (= x04 (_ bv3 8))))
(assert (not (= x04 x84)))
(assert (not (= x14 x24)))
(assert (not (= x14 (_ bv7 8))))
(assert (not (= x14 x44)))
(assert (not (= x14 x54)))
(assert (not (= x14 (_ bv8 8))))
(assert (not (= x14 (_ bv3 8))))
(assert (not (= x14 x84)))
(assert (not (= x24 (_ bv7 8))))
(assert (not (= x24 x44)))
(assert (not (= x24 x54)))
(assert (not (= x24 (_ bv8 8))))
(assert (not (= x24 (_ bv3 8))))
(assert (not (= x24 x84)))
(assert (not (= (_ bv7 8) x44)))
(assert (not (= (_ bv7 8) x54)))
(assert (not (= (_ bv7 8) (_ bv8 8))))
(assert (not (= (_ bv7 8) (_ bv3 8))))
(assert (not (= (_ bv7 8) x84)))
(assert (not (= x44 x54)))
(assert (not (= x44 (_ bv8 8))))
(assert (not (= x44 (_ bv3 8))))
(assert (not (= x44 x84)))
(assert (not (= x54 (_ bv8 8))))
(assert (not (= x54 (_ bv3 8))))
(assert (not (= x54 x84)))
(assert (not (= (_ bv8 8) (_ bv3 8))))
(assert (not (= (_ bv8 8) x84)))
(assert (not (= (_ bv3 8) x84)))
(assert (not (= x05 (_ bv2 8))))
(assert (not (= x05 x25)))
(assert (not (= x05 x35)))
(assert (not (= x05 (_ bv3 8))))
(assert (not (= x05 (_ bv9 8))))
(assert (not (= x05 x65)))
(assert (not (= x05 (_ bv7 8))))
(assert (not (= x05 (_ bv4 8))))
(assert (not (= (_ bv2 8) x25)))
(assert (not (= (_ bv2 8) x35)))
(assert (not (= (_ bv2 8) (_ bv3 8))))
(assert (not (= (_ bv2 8) (_ bv9 8))))
(assert (not (= (_ bv2 8) x65)))
(assert (not (= (_ bv2 8) (_ bv7 8))))
(assert (not (= (_ bv2 8) (_ bv4 8))))
(assert (not (= x25 x35)))
(assert (not (= x25 (_ bv3 8))))
(assert (not (= x25 (_ bv9 8))))
(assert (not (= x25 x65)))
(assert (not (= x25 (_ bv7 8))))
(assert (not (= x25 (_ bv4 8))))
(assert (not (= x35 (_ bv3 8))))
(assert (not (= x35 (_ bv9 8))))
(assert (not (= x35 x65)))
(assert (not (= x35 (_ bv7 8))))
(assert (not (= x35 (_ bv4 8))))
(assert (not (= (_ bv3 8) (_ bv9 8))))
(assert (not (= (_ bv3 8) x65)))
(assert (not (= (_ bv3 8) (_ bv7 8))))
(assert (not (= (_ bv3 8) (_ bv4 8))))
(assert (not (= (_ bv9 8) x65)))
(assert (not (= (_ bv9 8) (_ bv7 8))))
(assert (not (= (_ bv9 8) (_ bv4 8))))
(assert (not (= x65 (_ bv7 8))))
(assert (not (= x65 (_ bv4 8))))
(assert (not (= (_ bv7 8) (_ bv4 8))))
(assert (not (= (_ bv4 8) x16)))
(assert (not (= (_ bv4 8) (_ bv1 8))))
(assert (not (= (_ bv4 8) x36)))
(assert (not (= (_ bv4 8) (_ bv7 8))))
(assert (not (= (_ bv4 8) (_ bv2 8))))
(assert (not (= (_ bv4 8) x66)))
(assert (not (= (_ bv4 8) (_ bv6 8))))
(assert (not (= (_ bv4 8) x86)))
(assert (not (= x16 (_ bv1 8))))
(assert (not (= x16 x36)))
(assert (not (= x16 (_ bv7 8))))
(assert (not (= x16 (_ bv2 8))))
(assert (not (= x16 x66)))
(assert (not (= x16 (_ bv6 8))))
(assert (not (= x16 x86)))
(assert (not (= (_ bv1 8) x36)))
(assert (not (= (_ bv1 8) (_ bv7 8))))
(assert (not (= (_ bv1 8) (_ bv2 8))))
(assert (not (= (_ bv1 8) x66)))
(assert (not (= (_ bv1 8) (_ bv6 8))))
(assert (not (= (_ bv1 8) x86)))
(assert (not (= x36 (_ bv7 8))))
(assert (not (= x36 (_ bv2 8))))
(assert (not (= x36 x66)))
(assert (not (= x36 (_ bv6 8))))
(assert (not (= x36 x86)))
(assert (not (= (_ bv7 8) (_ bv2 8))))
(assert (not (= (_ bv7 8) x66)))
(assert (not (= (_ bv7 8) (_ bv6 8))))
(assert (not (= (_ bv7 8) x86)))
(assert (not (= (_ bv2 8) x66)))
(assert (not (= (_ bv2 8) (_ bv6 8))))
(assert (not (= (_ bv2 8) x86)))
(assert (not (= x66 (_ bv6 8))))
(assert (not (= x66 x86)))
(assert (not (= (_ bv6 8) x86)))
(assert (not (= x07 (_ bv6 8))))
(assert (not (= x07 (_ bv3 8))))
(assert (not (= x07 x37)))
(assert (not (= x07 (_ bv8 8))))
(assert (not (= x07 x57)))
(assert (not (= x07 x67)))
(assert (not (= x07 x77)))
(assert (not (= x07 x87)))
(assert (not (= (_ bv6 8) (_ bv3 8))))
(assert (not (= (_ bv6 8) x37)))
(assert (not (= (_ bv6 8) (_ bv8 8))))
(assert (not (= (_ bv6 8) x57)))
(assert (not (= (_ bv6 8) x67)))
(assert (not (= (_ bv6 8) x77)))
(assert (not (= (_ bv6 8) x87)))
(assert (not (= (_ bv3 8) x37)))
(assert (not (= (_ bv3 8) (_ bv8 8))))
(assert (not (= (_ bv3 8) x57)))
(assert (not (= (_ bv3 8) x67)))
(assert (not (= (_ bv3 8) x77)))
(assert (not (= (_ bv3 8) x87)))
(assert (not (= x37 (_ bv8 8))))
(assert (not (= x37 x57)))
(assert (not (= x37 x67)))
(assert (not (= x37 x77)))
(assert (not (= x37 x87)))
(assert (not (= (_ bv8 8) x57)))
(assert (not (= (_ bv8 8) x67)))
(assert (not (= (_ bv8 8) x77)))
(assert (not (= (_ bv8 8) x87)))
(assert (not (= x57 x67)))
(assert (not (= x57 x77)))
(assert (not (= x57 x87)))
(assert (not (= x67 x77)))
(assert (not (= x67 x87)))
(assert (not (= x77 x87)))
(assert (not (= x08 x18)))
(assert (not (= x08 (_ bv5 8))))
(assert (not (= x08 x38)))
(assert (not (= x08 (_ bv4 8))))
(assert (not (= x08 x58)))
(assert (not (= x08 x68)))
(assert (not (= x08 (_ bv9 8))))
(assert (not (= x08 (_ bv1 8))))
(assert (not (= x18 (_ bv5 8))))
(assert (not (= x18 x38)))
(assert (not (= x18 (_ bv4 8))))
(assert (not (= x18 x58)))
(assert (not (= x18 x68)))
(assert (not (= x18 (_ bv9 8))))
(assert (not (= x18 (_ bv1 8))))
(assert (not (= (_ bv5 8) x38)))
(assert (not (= (_ bv5 8) (_ bv4 8))))
(assert (not (= (_ bv5 8) x58)))
(assert (not (= (_ bv5 8) x68)))
(assert (not (= (_ bv5 8) (_ bv9 8))))
(assert (not (= (_ bv5 8) (_ bv1 8))))
(assert (not (= x38 (_ bv4 8))))
(assert (not (= x38 x58)))
(assert (not (= x38 x68)))
(assert (not (= x38 (_ bv9 8))))
(assert (not (= x38 (_ bv1 8))))
(assert (not (= (_ bv4 8) x58)))
(assert (not (= (_ bv4 8) x68)))
(assert (not (= (_ bv4 8) (_ bv9 8))))
(assert (not (= (_ bv4 8) (_ bv1 8))))
(assert (not (= x58 x68)))
(assert (not (= x58 (_ bv9 8))))
(assert (not (= x58 (_ bv1 8))))
(assert (not (= x68 (_ bv9 8))))
(assert (not (= x68 (_ bv1 8))))
(assert (not (= (_ bv9 8) (_ bv1 8))))
(assert (not (= x00 (_ bv3 8))))
(assert (not (= x00 (_ bv9 8))))
(assert (not (= x00 (_ bv8 8))))
(assert (not (= x00 x11)))
(assert (not (= x00 x12)))
(assert (not (= x00 x20)))
(assert (not (= x00 x21)))
(assert (not (= x00 (_ bv6 8))))
(assert (not (= (_ bv3 8) (_ bv9 8))))
(assert (not (= (_ bv3 8) (_ bv8 8))))
(assert (not (= (_ bv3 8) x11)))
(assert (not (= (_ bv3 8) x12)))
(assert (not (= (_ bv3 8) x20)))
(assert (not (= (_ bv3 8) x21)))
(assert (not (= (_ bv3 8) (_ bv6 8))))
(assert (not (= (_ bv9 8) (_ bv8 8))))
(assert (not (= (_ bv9 8) x11)))
(assert (not (= (_ bv9 8) x12)))
(assert (not (= (_ bv9 8) x20)))
(assert (not (= (_ bv9 8) x21)))
(assert (not (= (_ bv9 8) (_ bv6 8))))
(assert (not (= (_ bv8 8) x11)))
(assert (not (= (_ bv8 8) x12)))
(assert (not (= (_ bv8 8) x20)))
(assert (not (= (_ bv8 8) x21)))
(assert (not (= (_ bv8 8) (_ bv6 8))))
(assert (not (= x11 x12)))
(assert (not (= x11 x20)))
(assert (not (= x11 x21)))
(assert (not (= x11 (_ bv6 8))))
(assert (not (= x12 x20)))
(assert (not (= x12 x21)))
(assert (not (= x12 (_ bv6 8))))
(assert (not (= x20 x21)))
(assert (not (= x20 (_ bv6 8))))
(assert (not (= x21 (_ bv6 8))))
(assert (not (= (_ bv7 8) x04)))
(assert (not (= (_ bv7 8) x05)))
(assert (not (= (_ bv7 8) x13)))
(assert (not (= (_ bv7 8) x14)))
(assert (not (= (_ bv7 8) (_ bv2 8))))
(assert (not (= (_ bv7 8) x23)))
(assert (not (= (_ bv7 8) x24)))
(assert (not (= (_ bv7 8) x25)))
(assert (not (= x04 x05)))
(assert (not (= x04 x13)))
(assert (not (= x04 x14)))
(assert (not (= x04 (_ bv2 8))))
(assert (not (= x04 x23)))
(assert (not (= x04 x24)))
(assert (not (= x04 x25)))
(assert (not (= x05 x13)))
(assert (not (= x05 x14)))
(assert (not (= x05 (_ bv2 8))))
(assert (not (= x05 x23)))
(assert (not (= x05 x24)))
(assert (not (= x05 x25)))
(assert (not (= x13 x14)))
(assert (not (= x13 (_ bv2 8))))
(assert (not (= x13 x23)))
(assert (not (= x13 x24)))
(assert (not (= x13 x25)))
(assert (not (= x14 (_ bv2 8))))
(assert (not (= x14 x23)))
(assert (not (= x14 x24)))
(assert (not (= x14 x25)))
(assert (not (= (_ bv2 8) x23)))
(assert (not (= (_ bv2 8) x24)))
(assert (not (= (_ bv2 8) x25)))
(assert (not (= x23 x24)))
(assert (not (= x23 x25)))
(assert (not (= x24 x25)))
(assert (not (= (_ bv4 8) x07)))
(assert (not (= (_ bv4 8) x08)))
(assert (not (= (_ bv4 8) x16)))
(assert (not (= (_ bv4 8) (_ bv6 8))))
(assert (not (= (_ bv4 8) x18)))
(assert (not (= (_ bv4 8) (_ bv1 8))))
(assert (not (= (_ bv4 8) (_ bv3 8))))
(assert (not (= (_ bv4 8) (_ bv5 8))))
(assert (not (= x07 x08)))
(assert (not (= x07 x16)))
(assert (not (= x07 (_ bv6 8))))
(assert (not (= x07 x18)))
(assert (not (= x07 (_ bv1 8))))
(assert (not (= x07 (_ bv3 8))))
(assert (not (= x07 (_ bv5 8))))
(assert (not (= x08 x16)))
(assert (not (= x08 (_ bv6 8))))
(assert (not (= x08 x18)))
(assert (not (= x08 (_ bv1 8))))
(assert (not (= x08 (_ bv3 8))))
(assert (not (= x08 (_ bv5 8))))
(assert (not (= x16 (_ bv6 8))))
(assert (not (= x16 x18)))
(assert (not (= x16 (_ bv1 8))))
(assert (not (= x16 (_ bv3 8))))
(assert (not (= x16 (_ bv5 8))))
(assert (not (= (_ bv6 8) x18)))
(assert (not (= (_ bv6 8) (_ bv1 8))))
(assert (not (= (_ bv6 8) (_ bv3 8))))
(assert (not (= (_ bv6 8) (_ bv5 8))))
(assert (not (= x18 (_ bv1 8))))
(assert (not (= x18 (_ bv3 8))))
(assert (not (= x18 (_ bv5 8))))
(assert (not (= (_ bv1 8) (_ bv3 8))))
(assert (not (= (_ bv1 8) (_ bv5 8))))
(assert (not (= (_ bv3 8) (_ bv5 8))))
(assert (not (= x30 x31)))
(assert (not (= x30 x32)))
(assert (not (= x30 x40)))
(assert (not (= x30 x41)))
(assert (not (= x30 (_ bv1 8))))
(assert (not (= x30 x50)))
(assert (not (= x30 x51)))
(assert (not (= x30 x52)))
(assert (not (= x31 x32)))
(assert (not (= x31 x40)))
(assert (not (= x31 x41)))
(assert (not (= x31 (_ bv1 8))))
(assert (not (= x31 x50)))
(assert (not (= x31 x51)))
(assert (not (= x31 x52)))
(assert (not (= x32 x40)))
(assert (not (= x32 x41)))
(assert (not (= x32 (_ bv1 8))))
(assert (not (= x32 x50)))
(assert (not (= x32 x51)))
(assert (not (= x32 x52)))
(assert (not (= x40 x41)))
(assert (not (= x40 (_ bv1 8))))
(assert (not (= x40 x50)))
(assert (not (= x40 x51)))
(assert (not (= x40 x52)))
(assert (not (= x41 (_ bv1 8))))
(assert (not (= x41 x50)))
(assert (not (= x41 x51)))
(assert (not (= x41 x52)))
(assert (not (= (_ bv1 8) x50)))
(assert (not (= (_ bv1 8) x51)))
(assert (not (= (_ bv1 8) x52)))
(assert (not (= x50 x51)))
(assert (not (= x50 x52)))
(assert (not (= x51 x52)))
(assert (not (= x33 (_ bv7 8))))
(assert (not (= x33 x35)))
(assert (not (= x33 (_ bv2 8))))
(assert (not (= x33 x44)))
(assert (not (= x33 (_ bv3 8))))
(assert (not (= x33 (_ bv8 8))))
(assert (not (= x33 x54)))
(assert (not (= x33 (_ bv9 8))))
(assert (not (= (_ bv7 8) x35)))
(assert (not (= (_ bv7 8) (_ bv2 8))))
(assert (not (= (_ bv7 8) x44)))
(assert (not (= (_ bv7 8) (_ bv3 8))))
(assert (not (= (_ bv7 8) (_ bv8 8))))
(assert (not (= (_ bv7 8) x54)))
(assert (not (= (_ bv7 8) (_ bv9 8))))
(assert (not (= x35 (_ bv2 8))))
(assert (not (= x35 x44)))
(assert (not (= x35 (_ bv3 8))))
(assert (not (= x35 (_ bv8 8))))
(assert (not (= x35 x54)))
(assert (not (= x35 (_ bv9 8))))
(assert (not (= (_ bv2 8) x44)))
(assert (not (= (_ bv2 8) (_ bv3 8))))
(assert (not (= (_ bv2 8) (_ bv8 8))))
(assert (not (= (_ bv2 8) x54)))
(assert (not (= (_ bv2 8) (_ bv9 8))))
(assert (not (= x44 (_ bv3 8))))
(assert (not (= x44 (_ bv8 8))))
(assert (not (= x44 x54)))
(assert (not (= x44 (_ bv9 8))))
(assert (not (= (_ bv3 8) (_ bv8 8))))
(assert (not (= (_ bv3 8) x54)))
(assert (not (= (_ bv3 8) (_ bv9 8))))
(assert (not (= (_ bv8 8) x54)))
(assert (not (= (_ bv8 8) (_ bv9 8))))
(assert (not (= x54 (_ bv9 8))))
(assert (not (= x36 x37)))
(assert (not (= x36 x38)))
(assert (not (= x36 (_ bv7 8))))
(assert (not (= x36 (_ bv8 8))))
(assert (not (= x36 (_ bv4 8))))
(assert (not (= x36 (_ bv2 8))))
(assert (not (= x36 x57)))
(assert (not (= x36 x58)))
(assert (not (= x37 x38)))
(assert (not (= x37 (_ bv7 8))))
(assert (not (= x37 (_ bv8 8))))
(assert (not (= x37 (_ bv4 8))))
(assert (not (= x37 (_ bv2 8))))
(assert (not (= x37 x57)))
(assert (not (= x37 x58)))
(assert (not (= x38 (_ bv7 8))))
(assert (not (= x38 (_ bv8 8))))
(assert (not (= x38 (_ bv4 8))))
(assert (not (= x38 (_ bv2 8))))
(assert (not (= x38 x57)))
(assert (not (= x38 x58)))
(assert (not (= (_ bv7 8) (_ bv8 8))))
(assert (not (= (_ bv7 8) (_ bv4 8))))
(assert (not (= (_ bv7 8) (_ bv2 8))))
(assert (not (= (_ bv7 8) x57)))
(assert (not (= (_ bv7 8) x58)))
(assert (not (= (_ bv8 8) (_ bv4 8))))
(assert (not (= (_ bv8 8) (_ bv2 8))))
(assert (not (= (_ bv8 8) x57)))
(assert (not (= (_ bv8 8) x58)))
(assert (not (= (_ bv4 8) (_ bv2 8))))
(assert (not (= (_ bv4 8) x57)))
(assert (not (= (_ bv4 8) x58)))
(assert (not (= (_ bv2 8) x57)))
(assert (not (= (_ bv2 8) x58)))
(assert (not (= x57 x58)))
(assert (not (= x60 (_ bv1 8))))
(assert (not (= x60 x62)))
(assert (not (= x60 (_ bv2 8))))
(assert (not (= x60 (_ bv4 8))))
(assert (not (= x60 x72)))
(assert (not (= x60 x80)))
(assert (not (= x60 (_ bv6 8))))
(assert (not (= x60 (_ bv5 8))))
(assert (not (= (_ bv1 8) x62)))
(assert (not (= (_ bv1 8) (_ bv2 8))))
(assert (not (= (_ bv1 8) (_ bv4 8))))
(assert (not (= (_ bv1 8) x72)))
(assert (not (= (_ bv1 8) x80)))
(assert (not (= (_ bv1 8) (_ bv6 8))))
(assert (not (= (_ bv1 8) (_ bv5 8))))
(assert (not (= x62 (_ bv2 8))))
(assert (not (= x62 (_ bv4 8))))
(assert (not (= x62 x72)))
(assert (not (= x62 x80)))
(assert (not (= x62 (_ bv6 8))))
(assert (not (= x62 (_ bv5 8))))
(assert (not (= (_ bv2 8) (_ bv4 8))))
(assert (not (= (_ bv2 8) x72)))
(assert (not (= (_ bv2 8) x80)))
(assert (not (= (_ bv2 8) (_ bv6 8))))
(assert (not (= (_ bv2 8) (_ bv5 8))))
(assert (not (= (_ bv4 8) x72)))
(assert (not (= (_ bv4 8) x80)))
(assert (not (= (_ bv4 8) (_ bv6 8))))
(assert (not (= (_ bv4 8) (_ bv5 8))))
(assert (not (= x72 x80)))
(assert (not (= x72 (_ bv6 8))))
(assert (not (= x72 (_ bv5 8))))
(assert (not (= x80 (_ bv6 8))))
(assert (not (= x80 (_ bv5 8))))
(assert (not (= (_ bv6 8) (_ bv5 8))))
(assert (not (= (_ bv5 8) (_ bv8 8))))
(assert (not (= (_ bv5 8) x65)))
(assert (not (= (_ bv5 8) x73)))
(assert (not (= (_ bv5 8) (_ bv3 8))))
(assert (not (= (_ bv5 8) (_ bv7 8))))
(assert (not (= (_ bv5 8) x83)))
(assert (not (= (_ bv5 8) x84)))
(assert (not (= (_ bv5 8) (_ bv4 8))))
(assert (not (= (_ bv8 8) x65)))
(assert (not (= (_ bv8 8) x73)))
(assert (not (= (_ bv8 8) (_ bv3 8))))
(assert (not (= (_ bv8 8) (_ bv7 8))))
(assert (not (= (_ bv8 8) x83)))
(assert (not (= (_ bv8 8) x84)))
(assert (not (= (_ bv8 8) (_ bv4 8))))
(assert (not (= x65 x73)))
(assert (not (= x65 (_ bv3 8))))
(assert (not (= x65 (_ bv7 8))))
(assert (not (= x65 x83)))
(assert (not (= x65 x84)))
(assert (not (= x65 (_ bv4 8))))
(assert (not (= x73 (_ bv3 8))))
(assert (not (= x73 (_ bv7 8))))
(assert (not (= x73 x83)))
(assert (not (= x73 x84)))
(assert (not (= x73 (_ bv4 8))))
(assert (not (= (_ bv3 8) (_ bv7 8))))
(assert (not (= (_ bv3 8) x83)))
(assert (not (= (_ bv3 8) x84)))
(assert (not (= (_ bv3 8) (_ bv4 8))))
(assert (not (= (_ bv7 8) x83)))
(assert (not (= (_ bv7 8) x84)))
(assert (not (= (_ bv7 8) (_ bv4 8))))
(assert (not (= x83 x84)))
(assert (not (= x83 (_ bv4 8))))
(assert (not (= x84 (_ bv4 8))))
(assert (not (= x66 x67)))
(assert (not (= x66 x68)))
(assert (not (= x66 (_ bv6 8))))
(assert (not (= x66 x77)))
(assert (not (= x66 (_ bv9 8))))
(assert (not (= x66 x86)))
(assert (not (= x66 x87)))
(assert (not (= x66 (_ bv1 8))))
(assert (not (= x67 x68)))
(assert (not (= x67 (_ bv6 8))))
(assert (not (= x67 x77)))
(assert (not (= x67 (_ bv9 8))))
(assert (not (= x67 x86)))
(assert (not (= x67 x87)))
(assert (not (= x67 (_ bv1 8))))
(assert (not (= x68 (_ bv6 8))))
(assert (not (= x68 x77)))
(assert (not (= x68 (_ bv9 8))))
(assert (not (= x68 x86)))
(assert (not (= x68 x87)))
(assert (not (= x68 (_ bv1 8))))
(assert (not (= (_ bv6 8) x77)))
(assert (not (= (_ bv6 8) (_ bv9 8))))
(assert (not (= (_ bv6 8) x86)))
(assert (not (= (_ bv6 8) x87)))
(assert (not (= (_ bv6 8) (_ bv1 8))))
(assert (not (= x77 (_ bv9 8))))
(assert (not (= x77 x86)))
(assert (not (= x77 x87)))
(assert (not (= x77 (_ bv1 8))))
(assert (not (= (_ bv9 8) x86)))
(assert (not (= (_ bv9 8) x87)))
(assert (not (= (_ bv9 8) (_ bv1 8))))
(assert (not (= x86 x87)))
(assert (not (= x86 (_ bv1 8))))
(assert (not (= x87 (_ bv1 8))))
(check-sat)
(exit)
